========================================================== 
File name: C:\DEGR\assets\definitions\MSRCPSP_Gen\500_40_512_5_D.def
Creation date: Sat May 06 09:16:29 CEST 2023
Website: http://imopse.ii.pwr.edu.pl/ 
Reference: 
Myszkowski P. B., Skowronski M. E., Olech L., Oslizlo K., 
Hybrid Ant Colony Optimization in solving Multi-Skill Resource-Constrained Project Scheduling Problem, 
Soft Computing, DOI: DOI 10.1007/s00500-014-1455-x 
========================================================== 
General characteristics: 
Tasks: 500
Resources: 40
Precedence relations: 509
Number of skill types: 5
========================================================== 
ResourceID 	 Salary 	 Skills 
1	 	 	72.2	 	 Q3: 3 	  Q0: 0 	  Q2: 1 	  Q4: 0 	 
2	 	 	52.9	 	 Q2: 3 	  Q0: 0 	  Q1: 3 	 
3	 	 	51.7	 	 Q3: 0 	  Q2: 3 	  Q1: 2 	 
4	 	 	50.1	 	 Q2: 3 	  Q0: 0 	  Q1: 2 	 
5	 	 	60.8	 	 Q4: 0 	  Q0: 0 	  Q1: 1 	  Q2: 0 	 
6	 	 	53.8	 	 Q4: 0 	  Q0: 2 	  Q2: 1 	 
7	 	 	72.9	 	 Q2: 2 	 
8	 	 	85.1	 	 Q3: 2 	  Q2: 1 	  Q0: 0 	  Q1: 3 	 
9	 	 	30.5	 	 Q2: 0 	  Q3: 2 	  Q4: 0 	 
10	 	 	56.0	 	 Q0: 1 	  Q1: 3 	  Q2: 3 	  Q4: 3 	 
11	 	 	40.7	 	 Q2: 3 	  Q0: 2 	 
12	 	 	67.8	 	 Q0: 0 	  Q2: 2 	  Q1: 3 	 
13	 	 	24.9	 	 Q0: 2 	  Q2: 3 	 
14	 	 	54.5	 	 Q3: 2 	  Q0: 0 	  Q2: 0 	 
15	 	 	41.0	 	 Q3: 0 	 
16	 	 	97.9	 	 Q1: 1 	 
17	 	 	15.2	 	 Q0: 3 	  Q3: 3 	  Q4: 1 	  Q1: 2 	 
18	 	 	72.2	 	 Q3: 2 	  Q4: 2 	  Q1: 0 	  Q2: 0 	 
19	 	 	29.4	 	 Q1: 1 	  Q4: 0 	  Q0: 1 	 
20	 	 	14.9	 	 Q3: 3 	  Q4: 2 	 
21	 	 	33.9	 	 Q1: 1 	  Q4: 1 	 
22	 	 	41.8	 	 Q2: 0 	  Q4: 1 	  Q1: 3 	 
23	 	 	14.8	 	 Q1: 3 	 
24	 	 	25.9	 	 Q1: 0 	  Q4: 3 	 
25	 	 	93.8	 	 Q0: 3 	  Q1: 0 	  Q3: 2 	  Q4: 2 	 
26	 	 	95.6	 	 Q3: 2 	  Q2: 0 	  Q0: 2 	 
27	 	 	28.4	 	 Q1: 2 	  Q3: 0 	  Q2: 1 	  Q4: 2 	 
28	 	 	96.1	 	 Q4: 2 	  Q3: 2 	  Q0: 3 	 
29	 	 	48.3	 	 Q1: 3 	  Q3: 1 	  Q0: 3 	  Q2: 0 	 
30	 	 	18.6	 	 Q2: 2 	  Q4: 0 	 
31	 	 	36.5	 	 Q1: 3 	  Q2: 3 	  Q0: 1 	 
32	 	 	56.8	 	 Q1: 0 	 
33	 	 	17.6	 	 Q4: 3 	 
34	 	 	86.7	 	 Q0: 1 	 
35	 	 	15.9	 	 Q2: 0 	 
36	 	 	70.2	 	 Q3: 1 	  Q2: 2 	  Q1: 0 	  Q4: 2 	 
37	 	 	69.2	 	 Q3: 0 	  Q2: 3 	  Q4: 2 	  Q1: 0 	 
38	 	 	17.1	 	 Q0: 0 	  Q2: 1 	 
39	 	 	23.6	 	 Q3: 3 	  Q1: 1 	  Q4: 2 	  Q0: 3 	 
40	 	 	79.6	 	 Q1: 3 	 
========================================================== 
TaskID 	 Duration 	 Skill 	 Predecessor IDs 
1	10	Q4:	3
2	9	Q3:	2
3	25	Q2:	1
4	28	Q1:	0
5	26	Q3:	2
6	21	Q1:	0
7	37	Q4:	0
8	36	Q1:	0
9	10	Q2:	3
10	29	Q4:	0
11	19	Q2:	0
12	30	Q0:	2
13	40	Q3:	2
14	16	Q0:	3
15	18	Q4:	3
16	14	Q0:	0
17	14	Q4:	3
18	24	Q0:	0
19	38	Q0:	0
20	28	Q4:	3	10
21	10	Q0:	2
22	11	Q4:	1
23	14	Q0:	0
24	21	Q0:	1
25	28	Q3:	1
26	28	Q0:	3
27	21	Q2:	1
28	16	Q1:	1
29	27	Q1:	0
30	29	Q4:	0
31	29	Q4:	1
32	39	Q0:	1
33	39	Q0:	3
34	39	Q4:	2
35	37	Q4:	2
36	12	Q1:	1
37	26	Q0:	3
38	19	Q0:	1
39	34	Q0:	2
40	13	Q2:	1
41	18	Q0:	3
42	26	Q1:	2
43	36	Q1:	1
44	18	Q1:	1
45	29	Q0:	2	18
46	17	Q0:	0
47	37	Q0:	2
48	17	Q0:	2	9
49	26	Q0:	2	12	27
50	21	Q2:	3
51	11	Q0:	1	37
52	9	Q1:	3	13
53	30	Q1:	1	39
54	11	Q3:	2
55	16	Q2:	2
56	20	Q2:	1
57	12	Q3:	3
58	21	Q0:	3
59	30	Q0:	0
60	13	Q4:	3
61	9	Q0:	0
62	17	Q3:	0
63	13	Q1:	1
64	33	Q4:	2	2
65	14	Q3:	0
66	29	Q3:	0	32
67	27	Q1:	0
68	13	Q4:	1
69	19	Q4:	2	19	14
70	26	Q4:	1	37
71	37	Q4:	0
72	19	Q1:	3
73	18	Q0:	1
74	9	Q4:	2	46	71
75	28	Q2:	1
76	17	Q3:	2	42
77	19	Q1:	2
78	32	Q1:	0
79	17	Q2:	1	41
80	38	Q4:	0
81	32	Q3:	0
82	30	Q0:	1	46
83	29	Q4:	0
84	13	Q2:	1
85	29	Q2:	1	8
86	24	Q2:	3	19	52
87	13	Q0:	3	81	20
88	33	Q4:	0
89	9	Q0:	1	67	5
90	9	Q2:	3
91	20	Q2:	3
92	23	Q0:	3
93	27	Q0:	1
94	23	Q1:	1
95	10	Q3:	0	60
96	27	Q3:	1
97	31	Q1:	0
98	13	Q0:	2
99	25	Q4:	2
100	14	Q0:	2
101	28	Q2:	3
102	35	Q4:	2
103	40	Q3:	2
104	19	Q2:	2
105	39	Q1:	3	87
106	10	Q3:	3	29	80
107	34	Q4:	3
108	11	Q0:	0	46	74
109	10	Q1:	3
110	22	Q3:	2	88
111	8	Q4:	3
112	25	Q3:	0
113	37	Q4:	3	52	31	3
114	37	Q4:	0
115	28	Q4:	0	41
116	21	Q4:	1
117	35	Q4:	2
118	36	Q4:	1	57
119	18	Q0:	0
120	16	Q3:	2
121	25	Q2:	2	36
122	12	Q0:	0
123	19	Q4:	3
124	17	Q4:	3
125	25	Q4:	2
126	11	Q4:	2
127	21	Q2:	0
128	37	Q1:	0
129	28	Q0:	3	16
130	20	Q4:	3	34
131	11	Q2:	1	92
132	39	Q1:	3
133	14	Q1:	1
134	24	Q1:	1
135	34	Q2:	1
136	40	Q3:	2
137	16	Q2:	3	76
138	21	Q4:	3	89
139	9	Q1:	1	93
140	13	Q0:	2	63
141	23	Q3:	0	130
142	13	Q3:	1
143	28	Q1:	1	109	135
144	15	Q2:	3	141
145	24	Q2:	0
146	21	Q3:	1
147	20	Q3:	2
148	36	Q2:	0
149	18	Q4:	0
150	17	Q3:	3	92	51	73	111
151	26	Q2:	0	117
152	15	Q0:	1
153	26	Q1:	2	146	51
154	18	Q0:	1	113
155	39	Q2:	3
156	33	Q1:	0	127
157	27	Q4:	0
158	14	Q0:	0
159	9	Q2:	1	147
160	28	Q1:	3	158	18	113
161	28	Q3:	2
162	26	Q0:	0	101	159
163	16	Q4:	2
164	27	Q4:	0
165	16	Q4:	1
166	27	Q2:	2
167	18	Q0:	0	100
168	24	Q0:	2	53
169	31	Q4:	3
170	30	Q2:	0	131
171	24	Q0:	3	80
172	25	Q2:	0	53
173	24	Q4:	0	13
174	31	Q2:	1
175	13	Q3:	2
176	29	Q0:	0
177	32	Q1:	0
178	10	Q3:	2	13	150
179	39	Q1:	3	17
180	19	Q2:	2
181	35	Q2:	0
182	24	Q3:	0
183	9	Q0:	0
184	25	Q1:	0	112
185	21	Q3:	2
186	26	Q1:	3
187	20	Q2:	2	113	166	122
188	37	Q2:	1
189	24	Q2:	1	95	149
190	12	Q2:	3
191	13	Q4:	2
192	13	Q2:	1
193	24	Q0:	0
194	14	Q4:	2	4
195	31	Q1:	2	86	98
196	39	Q3:	1
197	11	Q0:	1
198	29	Q0:	0
199	29	Q1:	2	26
200	9	Q4:	2
201	12	Q3:	2	135
202	35	Q1:	0	131	50
203	15	Q0:	3
204	34	Q3:	2	64
205	36	Q1:	2
206	12	Q3:	2
207	38	Q0:	1	186	182
208	25	Q3:	2
209	24	Q0:	0
210	16	Q3:	3
211	19	Q0:	3	143	187	16
212	36	Q0:	2	57	75	87
213	30	Q4:	3
214	38	Q3:	0
215	36	Q2:	0
216	12	Q3:	3
217	22	Q3:	2	13
218	28	Q3:	2
219	29	Q2:	2	126	3
220	22	Q0:	0	136	24
221	34	Q4:	1	98
222	37	Q1:	1
223	18	Q4:	2	34
224	29	Q3:	1	128
225	39	Q0:	0	76	177	119
226	10	Q1:	1
227	20	Q1:	2	112
228	17	Q0:	1	172	1
229	40	Q1:	1
230	21	Q1:	2	58
231	11	Q4:	0	59
232	26	Q3:	2	59
233	15	Q2:	1	23	108
234	29	Q2:	2	98	179
235	29	Q0:	1	148	156
236	19	Q1:	2	47	38
237	14	Q1:	2
238	39	Q1:	1
239	33	Q0:	3
240	30	Q4:	3	11	219	104
241	39	Q1:	1	46
242	9	Q1:	1	185	184	235
243	10	Q1:	1
244	24	Q1:	1	118	89
245	26	Q1:	3
246	26	Q4:	0
247	25	Q0:	0	220	126
248	11	Q2:	3	136
249	15	Q0:	2	158	241	13
250	36	Q0:	1	164	30	148
251	33	Q1:	2	56
252	18	Q2:	1
253	39	Q3:	1	89
254	28	Q0:	0	159
255	27	Q1:	1
256	28	Q2:	1
257	37	Q0:	2	16	79	3
258	27	Q0:	1
259	12	Q4:	2
260	34	Q3:	0	216	190
261	14	Q2:	3	36	244
262	10	Q3:	1	208	200	18
263	17	Q2:	3	107	166
264	40	Q4:	2	132
265	12	Q1:	1
266	32	Q0:	3	214	170
267	23	Q2:	2	169
268	23	Q4:	2	265
269	11	Q1:	2	55	264
270	11	Q4:	3
271	16	Q0:	3	140	229	153	127
272	39	Q3:	3
273	12	Q3:	2	158
274	25	Q1:	2
275	13	Q3:	1
276	11	Q3:	2	35
277	39	Q4:	1	263
278	9	Q1:	0
279	39	Q4:	1	220	209	113
280	33	Q1:	2	172	152
281	32	Q4:	3
282	16	Q4:	2
283	18	Q0:	3	22	258	117
284	10	Q1:	3	70	105
285	27	Q0:	0
286	19	Q1:	1	6
287	13	Q1:	1	222	126
288	32	Q3:	3
289	25	Q1:	2	23	19
290	20	Q3:	2	138	110
291	36	Q1:	3	177	271
292	13	Q4:	1	102
293	22	Q2:	2	149	33
294	23	Q1:	1
295	34	Q4:	3	188
296	29	Q4:	3
297	27	Q1:	0
298	30	Q0:	1	222
299	23	Q4:	3
300	20	Q4:	3	133
301	29	Q3:	1	248	239	94
302	25	Q1:	1
303	13	Q3:	1	162	161
304	10	Q1:	1	232	273
305	13	Q4:	3	234	247
306	32	Q3:	3
307	13	Q4:	1	141	283
308	33	Q3:	0
309	25	Q1:	3	119
310	19	Q3:	0	234	117	251
311	25	Q1:	0	270
312	24	Q3:	1	56
313	36	Q0:	1	159
314	24	Q1:	3	271	145
315	32	Q3:	1	198	258
316	28	Q1:	2	186	33	98	122
317	11	Q4:	3	29	4
318	10	Q2:	0	105
319	35	Q0:	2	110	282
320	34	Q2:	3
321	12	Q1:	0	278
322	40	Q2:	0
323	30	Q3:	0	310
324	24	Q3:	2	183
325	25	Q1:	2	173
326	36	Q1:	0	217	130
327	36	Q0:	0	131
328	30	Q4:	1
329	29	Q1:	2
330	20	Q2:	1	133
331	12	Q1:	2
332	34	Q4:	1	288	324	95
333	9	Q1:	1	101
334	27	Q4:	0	4
335	28	Q2:	3	81	30
336	34	Q0:	0
337	13	Q2:	0	73	122	28	79
338	22	Q0:	1
339	24	Q1:	2	245
340	14	Q0:	1	21	125	6
341	38	Q0:	1	45
342	23	Q3:	3	11
343	29	Q2:	3
344	11	Q4:	2	51	175
345	20	Q4:	1	45
346	32	Q2:	1	160
347	36	Q1:	2	311
348	22	Q0:	2	208
349	23	Q3:	2
350	12	Q2:	3	201	177
351	12	Q3:	0	313	96
352	15	Q0:	0	329	80	295	126	258
353	32	Q3:	3	100	318	95
354	13	Q1:	1	217	345	116
355	16	Q4:	2	336	114
356	14	Q0:	3	183	19
357	17	Q1:	3	141	28	253	296
358	30	Q0:	2	300
359	23	Q4:	3
360	13	Q4:	1	97	242	270	95
361	29	Q2:	0	7	52	161
362	27	Q3:	1	92
363	39	Q3:	3	349	306	284
364	21	Q0:	2
365	25	Q2:	2
366	21	Q0:	1	89	147	237
367	36	Q2:	3	160	14
368	24	Q1:	2	56
369	40	Q3:	1	222
370	17	Q1:	1	295	47
371	14	Q2:	2	224	75
372	18	Q0:	2	194
373	35	Q4:	2	7	317	246
374	16	Q4:	1	183	109
375	11	Q3:	0
376	9	Q0:	3	256	122	35	245
377	29	Q1:	1	147
378	17	Q3:	1
379	20	Q3:	3	254	374
380	27	Q4:	2	198	348	252	173
381	20	Q2:	3	140
382	26	Q0:	1
383	21	Q0:	3
384	20	Q3:	0
385	26	Q2:	1	356
386	38	Q2:	2	23
387	33	Q0:	2	383	333
388	26	Q2:	1
389	24	Q4:	0	111	214	178
390	28	Q4:	3
391	24	Q3:	3	28	169
392	38	Q4:	0	229
393	18	Q3:	2	147	324
394	10	Q1:	3
395	21	Q0:	2	320	390
396	36	Q4:	3	300	233
397	32	Q2:	1
398	25	Q2:	1	197
399	34	Q3:	3
400	27	Q3:	2
401	33	Q1:	2	197	188
402	22	Q3:	0	107
403	25	Q4:	2
404	21	Q3:	0	273
405	12	Q1:	0
406	35	Q3:	3	66	60
407	20	Q4:	3
408	26	Q2:	3	274	406
409	17	Q1:	1	346	352	202
410	23	Q3:	0	264	309
411	38	Q4:	3
412	23	Q0:	1	316	40
413	21	Q3:	1	20
414	11	Q4:	2	351
415	22	Q1:	0	171
416	26	Q3:	0
417	36	Q3:	3	121	18	248	162
418	22	Q3:	1	272
419	36	Q2:	2	393
420	9	Q2:	1
421	23	Q4:	1	396	410	359
422	9	Q3:	3	61	249	397	1
423	21	Q0:	2	46
424	19	Q1:	3	365	141	88
425	10	Q4:	0	400	59	398
426	21	Q1:	3	263
427	35	Q2:	2	326
428	36	Q3:	3	35
429	39	Q2:	2	51	233	311	109	75
430	33	Q3:	1	112	137	391
431	21	Q2:	3	333
432	31	Q2:	1	128
433	11	Q4:	0	49
434	13	Q0:	2	366	398
435	22	Q3:	0	404	368
436	14	Q1:	2	202	342
437	21	Q2:	1	14
438	40	Q0:	2
439	15	Q0:	0	114	106
440	17	Q0:	3
441	20	Q4:	2	72
442	10	Q2:	0	142
443	15	Q3:	1	259
444	21	Q3:	0	161	238	48	152
445	31	Q3:	3	365
446	11	Q2:	0	325
447	40	Q4:	2
448	40	Q0:	0	322	282	310
449	40	Q2:	3
450	26	Q2:	1	18	194
451	31	Q1:	2	192	294	109	336	131
452	26	Q2:	3	65
453	27	Q0:	0	115	81
454	25	Q3:	1	289
455	35	Q0:	1	62	135
456	24	Q0:	3	48	377	42	278
457	38	Q1:	3	40	287	382
458	28	Q2:	1	381	421	202
459	35	Q1:	0
460	34	Q0:	3	209
461	36	Q2:	1	438	223	417
462	28	Q1:	0
463	32	Q0:	2
464	34	Q0:	3	145
465	35	Q2:	2	343
466	32	Q3:	1
467	29	Q4:	2	75
468	19	Q0:	0	237
469	34	Q0:	0	293
470	36	Q4:	3	55
471	32	Q4:	2	86
472	38	Q2:	0
473	24	Q4:	1	249	113	149
474	32	Q2:	2	282	351
475	20	Q0:	3	128	321	392
476	35	Q4:	2	267
477	32	Q3:	2	322
478	33	Q1:	0	337	160
479	34	Q3:	3	202
480	14	Q4:	2	138
481	38	Q3:	0	166
482	10	Q1:	1	353	427	54
483	31	Q0:	3	322
484	40	Q4:	0	302
485	16	Q1:	0	483	234	213	61	296
486	36	Q2:	1	54	373	34
487	32	Q1:	1	230	14	180
488	19	Q3:	1	466
489	16	Q3:	1	350	56
490	32	Q1:	1	355	251	433	425
491	35	Q1:	0	122	278	375	294
492	38	Q1:	0	193	170	117	468
493	23	Q1:	2	310	145	17	144
494	17	Q3:	3	75
495	35	Q2:	2	453
496	24	Q1:	1	385
497	14	Q4:	1	470	223	283
498	31	Q1:	0	182	21	375	181
499	18	Q4:	0	65	386	39
500	16	Q4:	3	332	473	204	360
========================================================== 